Version identifier: 22.1.0.0 | 2022-03-09 | 1a383f8ce
CPXPARAM_Threads                                 1
CPXPARAM_MIP_Strategy_VariableSelect             3
CPXPARAM_TimeLimit                               599.99998164500005
1 of 1 MIP starts provided solutions.
MIP start 'm1' defined initial solution with objective 1.0000.
Tried aggregator 1 time.
MIP Presolve eliminated 17 rows and 0 columns.
MIP Presolve modified 48 coefficients.
Reduced MIP has 4504 rows, 10500 columns, and 226123 nonzeros.
Reduced MIP has 10500 binaries, 0 generals, 0 SOSs, and 0 indicators.
Presolve time = 0.27 sec. (355.72 ticks)
Probing time = 0.08 sec. (27.50 ticks)
Tried aggregator 1 time.
Detecting symmetries...
MIP Presolve modified 15 coefficients.
Reduced MIP has 4504 rows, 10500 columns, and 226297 nonzeros.
Reduced MIP has 10500 binaries, 0 generals, 0 SOSs, and 0 indicators.
Presolve time = 0.27 sec. (343.26 ticks)
Probing time = 0.05 sec. (27.51 ticks)
Clique table members: 2992.
MIP emphasis: balance optimality and feasibility.
MIP search method: dynamic search.
Parallel mode: none, using 1 thread.
Root relaxation solution time = 4.27 sec. (4056.39 ticks)

        Nodes                                         Cuts/
   Node  Left     Objective  IInf  Best Integer    Best Bound    ItCnt     Gap

*     0+    0                            1.0000   125250.0000              --- 
      0     0      500.0000  2122        1.0000      500.0000     8628     --- 
      0     0      500.0000   270        1.0000      Cuts: 15    10269     --- 
      0     0      500.0000   544        1.0000     Cuts: 100    14954     --- 
*     0+    0                          500.0000      500.0000             0.00%
      0     0        cutoff            500.0000      500.0000    14954    0.00%
Elapsed time = 60.08 sec. (57518.20 ticks, tree = 0.01 MB, solutions = 2)

Clique cuts applied:  41
Zero-half cuts applied:  22

Root node processing (before b&c):
  Real time             =   60.09 sec. (57519.34 ticks)
Sequential b&c:
  Real time             =    0.00 sec. (0.00 ticks)
                          ------------
Total (root+branch&cut) =   60.09 sec. (57519.34 ticks)
Primal:	500
Dual:	500
Status:	Optimal
Time:	60.13
Sequence:
	19
	6
	5
	19
	12
	2
	19
	12
	2
	19
	2
	12
	19
	1
	4
	19
	6
	2
	16
	15
	5
	16
	15
	5
	16
	15
	5
	16
	15
	5
	16
	7
	12
	13
	3
	15
	0
	14
	11
	13
	5
	17
	13
	7
	8
	13
	7
	8
	13
	7
	8
	0
	7
	17
	13
	7
	8
	13
	7
	14
	13
	11
	3
	13
	11
	14
	0
	11
	3
	0
	11
	3
	13
	11
	14
	0
	11
	14
	0
	11
	3
	13
	11
	3
	13
	11
	14
	0
	11
	1
	16
	15
	18
	0
	3
	11
	0
	14
	11
	13
	3
	11
	0
	3
	11
	13
	3
	15
	13
	3
	11
	0
	3
	15
	0
	14
	7
	0
	8
	7
	13
	8
	7
	13
	8
	7
	13
	8
	7
	13
	8
	7
	13
	8
	7
	13
	14
	11
	0
	14
	1
	9
	3
	2
	9
	14
	18
	9
	14
	1
	9
	3
	18
	9
	14
	18
	9
	14
	1
	9
	14
	4
	9
	14
	18
	9
	3
	1
	9
	3
	2
	9
	14
	18
	9
	3
	4
	9
	3
	18
	9
	3
	18
	9
	3
	2
	9
	3
	18
	9
	3
	4
	9
	14
	4
	9
	14
	18
	9
	3
	18
	10
	8
	4
	10
	17
	4
	10
	17
	2
	10
	17
	18
	10
	17
	18
	0
	3
	15
	0
	3
	11
	13
	3
	11
	0
	14
	11
	13
	3
	4
	9
	14
	2
	9
	14
	18
	9
	14
	18
	9
	14
	4
	9
	14
	18
	10
	17
	4
	10
	17
	18
	10
	8
	1
	10
	17
	18
	0
	8
	7
	0
	8
	7
	13
	17
	7
	0
	8
	7
	0
	17
	7
	0
	8
	2
	18
	19
	2
	4
	8
	10
	5
	8
	10
	4
	8
	10
	18
	17
	10
	2
	17
	10
	1
	8
	10
	5
	17
	10
	1
	17
	7
	13
	8
	7
	1
	16
	6
	7
	16
	6
	18
	19
	18
	6
	16
	7
	12
	14
	10
	6
	14
	10
	6
	14
	10
	5
	8
	10
	1
	8
	10
	18
	17
	10
	4
	17
	10
	2
	17
	10
	2
	12
	19
	18
	6
	19
	18
	2
	19
	2
	12
	19
	18
	6
	19
	1
	6
	19
	18
	6
	19
	18
	6
	19
	4
	6
	19
	5
	4
	19
	12
	2
	19
	12
	2
	19
	12
	2
	19
	12
	5
	19
	12
	5
	19
	6
	4
	19
	12
	2
	19
	12
	2
	19
	6
	1
	19
	6
	18
	19
	18
	6
	19
	1
	2
	16
	15
	5
	16
	15
	5
	16
	15
	5
	16
	15
	5
	16
	15
	5
	16
	15
	5
	16
	2
	4
	19
	4
	6
	16
	1
	15
	0
	14
	11
	5
	16
	5
	15
	16
	5
	15
	16
	5
	15
	16
	1
	2
	19
	6
	4
	19
	12
	5
	19
	6
	18
	19
	6
	1
	16
	15
	5
	16
	15
	5
	16
	7
	4
	8
	10
	18
	17
	10
	5
	8
	10
	4
	17
	10
	5
	8
	10
	1
	8
	10
	2
	6
	19
	4
	2
	19
	6
	4
	19
	1
	6
	19
